p cnf 612 2048
-1 0
-307 0
324 2 0
-324 -2 0
2 341 3 0
-2 -341 0
-2 -3 0
-341 -3 0
3 358 4 0
-3 -358 0
-3 -4 0
-358 -4 0
4 375 5 0
-4 -375 0
-4 -5 0
-375 -5 0
5 392 6 0
-5 -392 0
-5 -6 0
-392 -6 0
6 409 7 0
-6 -409 0
-6 -7 0
-409 -7 0
7 426 8 0
-7 -426 0
-7 -8 0
-426 -8 0
8 443 9 0
-8 -443 0
-8 -9 0
-443 -9 0
9 460 10 0
-9 -460 0
-9 -10 0
-460 -10 0
10 477 11 0
-10 -477 0
-10 -11 0
-477 -11 0
11 494 12 0
-11 -494 0
-11 -12 0
-494 -12 0
12 511 13 0
-12 -511 0
-12 -13 0
-511 -13 0
13 528 14 0
-13 -528 0
-13 -14 0
-528 -14 0
14 545 15 0
-14 -545 0
-14 -15 0
-545 -15 0
15 562 16 0
-15 -562 0
-15 -16 0
-562 -16 0
16 579 17 0
-16 -579 0
-16 -17 0
-579 -17 0
17 596 0
-17 -596 0
308 18 0
-308 -18 0
324 18 325 19 0
-324 -18 0
-324 -325 0
-324 -19 0
-18 -325 0
-18 -19 0
-325 -19 0
341 19 342 20 0
-341 -19 0
-341 -342 0
-341 -20 0
-19 -342 0
-19 -20 0
-342 -20 0
358 20 359 21 0
-358 -20 0
-358 -359 0
-358 -21 0
-20 -359 0
-20 -21 0
-359 -21 0
375 21 376 22 0
-375 -21 0
-375 -376 0
-375 -22 0
-21 -376 0
-21 -22 0
-376 -22 0
392 22 393 23 0
-392 -22 0
-392 -393 0
-392 -23 0
-22 -393 0
-22 -23 0
-393 -23 0
409 23 410 24 0
-409 -23 0
-409 -410 0
-409 -24 0
-23 -410 0
-23 -24 0
-410 -24 0
426 24 427 25 0
-426 -24 0
-426 -427 0
-426 -25 0
-24 -427 0
-24 -25 0
-427 -25 0
443 25 444 26 0
-443 -25 0
-443 -444 0
-443 -26 0
-25 -444 0
-25 -26 0
-444 -26 0
460 26 461 27 0
-460 -26 0
-460 -461 0
-460 -27 0
-26 -461 0
-26 -27 0
-461 -27 0
477 27 478 28 0
-477 -27 0
-477 -478 0
-477 -28 0
-27 -478 0
-27 -28 0
-478 -28 0
494 28 495 29 0
-494 -28 0
-494 -495 0
-494 -29 0
-28 -495 0
-28 -29 0
-495 -29 0
511 29 512 30 0
-511 -29 0
-511 -512 0
-511 -30 0
-29 -512 0
-29 -30 0
-512 -30 0
528 30 529 31 0
-528 -30 0
-528 -529 0
-528 -31 0
-30 -529 0
-30 -31 0
-529 -31 0
545 31 546 32 0
-545 -31 0
-545 -546 0
-545 -32 0
-31 -546 0
-31 -32 0
-546 -32 0
562 32 563 33 0
-562 -32 0
-562 -563 0
-562 -33 0
-32 -563 0
-32 -33 0
-563 -33 0
579 33 580 34 0
-579 -33 0
-579 -580 0
-579 -34 0
-33 -580 0
-33 -34 0
-580 -34 0
596 34 597 0
-596 -34 0
-596 -597 0
-34 -597 0
308 309 35 0
-308 -309 0
-308 -35 0
-309 -35 0
325 35 326 36 0
-325 -35 0
-325 -326 0
-325 -36 0
-35 -326 0
-35 -36 0
-326 -36 0
342 36 343 37 0
-342 -36 0
-342 -343 0
-342 -37 0
-36 -343 0
-36 -37 0
-343 -37 0
359 37 360 38 0
-359 -37 0
-359 -360 0
-359 -38 0
-37 -360 0
-37 -38 0
-360 -38 0
376 38 377 39 0
-376 -38 0
-376 -377 0
-376 -39 0
-38 -377 0
-38 -39 0
-377 -39 0
393 39 394 40 0
-393 -39 0
-393 -394 0
-393 -40 0
-39 -394 0
-39 -40 0
-394 -40 0
410 40 411 41 0
-410 -40 0
-410 -411 0
-410 -41 0
-40 -411 0
-40 -41 0
-411 -41 0
427 41 428 42 0
-427 -41 0
-427 -428 0
-427 -42 0
-41 -428 0
-41 -42 0
-428 -42 0
444 42 445 43 0
-444 -42 0
-444 -445 0
-444 -43 0
-42 -445 0
-42 -43 0
-445 -43 0
461 43 462 44 0
-461 -43 0
-461 -462 0
-461 -44 0
-43 -462 0
-43 -44 0
-462 -44 0
478 44 479 45 0
-478 -44 0
-478 -479 0
-478 -45 0
-44 -479 0
-44 -45 0
-479 -45 0
495 45 496 46 0
-495 -45 0
-495 -496 0
-495 -46 0
-45 -496 0
-45 -46 0
-496 -46 0
512 46 513 47 0
-512 -46 0
-512 -513 0
-512 -47 0
-46 -513 0
-46 -47 0
-513 -47 0
529 47 530 48 0
-529 -47 0
-529 -530 0
-529 -48 0
-47 -530 0
-47 -48 0
-530 -48 0
546 48 547 49 0
-546 -48 0
-546 -547 0
-546 -49 0
-48 -547 0
-48 -49 0
-547 -49 0
563 49 564 50 0
-563 -49 0
-563 -564 0
-563 -50 0
-49 -564 0
-49 -50 0
-564 -50 0
580 50 581 51 0
-580 -50 0
-580 -581 0
-580 -51 0
-50 -581 0
-50 -51 0
-581 -51 0
597 51 598 0
-597 -51 0
-597 -598 0
-51 -598 0
309 310 52 0
-309 -310 0
-309 -52 0
-310 -52 0
326 52 327 53 0
-326 -52 0
-326 -327 0
-326 -53 0
-52 -327 0
-52 -53 0
-327 -53 0
343 53 344 54 0
-343 -53 0
-343 -344 0
-343 -54 0
-53 -344 0
-53 -54 0
-344 -54 0
360 54 361 55 0
-360 -54 0
-360 -361 0
-360 -55 0
-54 -361 0
-54 -55 0
-361 -55 0
377 55 378 56 0
-377 -55 0
-377 -378 0
-377 -56 0
-55 -378 0
-55 -56 0
-378 -56 0
394 56 395 57 0
-394 -56 0
-394 -395 0
-394 -57 0
-56 -395 0
-56 -57 0
-395 -57 0
411 57 412 58 0
-411 -57 0
-411 -412 0
-411 -58 0
-57 -412 0
-57 -58 0
-412 -58 0
428 58 429 59 0
-428 -58 0
-428 -429 0
-428 -59 0
-58 -429 0
-58 -59 0
-429 -59 0
445 59 446 60 0
-445 -59 0
-445 -446 0
-445 -60 0
-59 -446 0
-59 -60 0
-446 -60 0
462 60 463 61 0
-462 -60 0
-462 -463 0
-462 -61 0
-60 -463 0
-60 -61 0
-463 -61 0
479 61 480 62 0
-479 -61 0
-479 -480 0
-479 -62 0
-61 -480 0
-61 -62 0
-480 -62 0
496 62 497 63 0
-496 -62 0
-496 -497 0
-496 -63 0
-62 -497 0
-62 -63 0
-497 -63 0
513 63 514 64 0
-513 -63 0
-513 -514 0
-513 -64 0
-63 -514 0
-63 -64 0
-514 -64 0
530 64 531 65 0
-530 -64 0
-530 -531 0
-530 -65 0
-64 -531 0
-64 -65 0
-531 -65 0
547 65 548 66 0
-547 -65 0
-547 -548 0
-547 -66 0
-65 -548 0
-65 -66 0
-548 -66 0
564 66 565 67 0
-564 -66 0
-564 -565 0
-564 -67 0
-66 -565 0
-66 -67 0
-565 -67 0
581 67 582 68 0
-581 -67 0
-581 -582 0
-581 -68 0
-67 -582 0
-67 -68 0
-582 -68 0
598 68 599 0
-598 -68 0
-598 -599 0
-68 -599 0
310 311 69 0
-310 -311 0
-310 -69 0
-311 -69 0
327 69 328 70 0
-327 -69 0
-327 -328 0
-327 -70 0
-69 -328 0
-69 -70 0
-328 -70 0
344 70 345 71 0
-344 -70 0
-344 -345 0
-344 -71 0
-70 -345 0
-70 -71 0
-345 -71 0
361 71 362 72 0
-361 -71 0
-361 -362 0
-361 -72 0
-71 -362 0
-71 -72 0
-362 -72 0
378 72 379 73 0
-378 -72 0
-378 -379 0
-378 -73 0
-72 -379 0
-72 -73 0
-379 -73 0
395 73 396 74 0
-395 -73 0
-395 -396 0
-395 -74 0
-73 -396 0
-73 -74 0
-396 -74 0
412 74 413 75 0
-412 -74 0
-412 -413 0
-412 -75 0
-74 -413 0
-74 -75 0
-413 -75 0
429 75 430 76 0
-429 -75 0
-429 -430 0
-429 -76 0
-75 -430 0
-75 -76 0
-430 -76 0
446 76 447 77 0
-446 -76 0
-446 -447 0
-446 -77 0
-76 -447 0
-76 -77 0
-447 -77 0
463 77 464 78 0
-463 -77 0
-463 -464 0
-463 -78 0
-77 -464 0
-77 -78 0
-464 -78 0
480 78 481 79 0
-480 -78 0
-480 -481 0
-480 -79 0
-78 -481 0
-78 -79 0
-481 -79 0
497 79 498 80 0
-497 -79 0
-497 -498 0
-497 -80 0
-79 -498 0
-79 -80 0
-498 -80 0
514 80 515 81 0
-514 -80 0
-514 -515 0
-514 -81 0
-80 -515 0
-80 -81 0
-515 -81 0
531 81 532 82 0
-531 -81 0
-531 -532 0
-531 -82 0
-81 -532 0
-81 -82 0
-532 -82 0
548 82 549 83 0
-548 -82 0
-548 -549 0
-548 -83 0
-82 -549 0
-82 -83 0
-549 -83 0
565 83 566 84 0
-565 -83 0
-565 -566 0
-565 -84 0
-83 -566 0
-83 -84 0
-566 -84 0
582 84 583 85 0
-582 -84 0
-582 -583 0
-582 -85 0
-84 -583 0
-84 -85 0
-583 -85 0
599 85 600 0
-599 -85 0
-599 -600 0
-85 -600 0
311 312 86 0
-311 -312 0
-311 -86 0
-312 -86 0
328 86 329 87 0
-328 -86 0
-328 -329 0
-328 -87 0
-86 -329 0
-86 -87 0
-329 -87 0
345 87 346 88 0
-345 -87 0
-345 -346 0
-345 -88 0
-87 -346 0
-87 -88 0
-346 -88 0
362 88 363 89 0
-362 -88 0
-362 -363 0
-362 -89 0
-88 -363 0
-88 -89 0
-363 -89 0
379 89 380 90 0
-379 -89 0
-379 -380 0
-379 -90 0
-89 -380 0
-89 -90 0
-380 -90 0
396 90 397 91 0
-396 -90 0
-396 -397 0
-396 -91 0
-90 -397 0
-90 -91 0
-397 -91 0
413 91 414 92 0
-413 -91 0
-413 -414 0
-413 -92 0
-91 -414 0
-91 -92 0
-414 -92 0
430 92 431 93 0
-430 -92 0
-430 -431 0
-430 -93 0
-92 -431 0
-92 -93 0
-431 -93 0
447 93 448 94 0
-447 -93 0
-447 -448 0
-447 -94 0
-93 -448 0
-93 -94 0
-448 -94 0
464 94 465 95 0
-464 -94 0
-464 -465 0
-464 -95 0
-94 -465 0
-94 -95 0
-465 -95 0
481 95 482 96 0
-481 -95 0
-481 -482 0
-481 -96 0
-95 -482 0
-95 -96 0
-482 -96 0
498 96 499 97 0
-498 -96 0
-498 -499 0
-498 -97 0
-96 -499 0
-96 -97 0
-499 -97 0
515 97 516 98 0
-515 -97 0
-515 -516 0
-515 -98 0
-97 -516 0
-97 -98 0
-516 -98 0
532 98 533 99 0
-532 -98 0
-532 -533 0
-532 -99 0
-98 -533 0
-98 -99 0
-533 -99 0
549 99 550 100 0
-549 -99 0
-549 -550 0
-549 -100 0
-99 -550 0
-99 -100 0
-550 -100 0
566 100 567 101 0
-566 -100 0
-566 -567 0
-566 -101 0
-100 -567 0
-100 -101 0
-567 -101 0
583 101 584 102 0
-583 -101 0
-583 -584 0
-583 -102 0
-101 -584 0
-101 -102 0
-584 -102 0
600 102 601 0
-600 -102 0
-600 -601 0
-102 -601 0
312 313 103 0
-312 -313 0
-312 -103 0
-313 -103 0
329 103 330 104 0
-329 -103 0
-329 -330 0
-329 -104 0
-103 -330 0
-103 -104 0
-330 -104 0
346 104 347 105 0
-346 -104 0
-346 -347 0
-346 -105 0
-104 -347 0
-104 -105 0
-347 -105 0
363 105 364 106 0
-363 -105 0
-363 -364 0
-363 -106 0
-105 -364 0
-105 -106 0
-364 -106 0
380 106 381 107 0
-380 -106 0
-380 -381 0
-380 -107 0
-106 -381 0
-106 -107 0
-381 -107 0
397 107 398 108 0
-397 -107 0
-397 -398 0
-397 -108 0
-107 -398 0
-107 -108 0
-398 -108 0
414 108 415 109 0
-414 -108 0
-414 -415 0
-414 -109 0
-108 -415 0
-108 -109 0
-415 -109 0
431 109 432 110 0
-431 -109 0
-431 -432 0
-431 -110 0
-109 -432 0
-109 -110 0
-432 -110 0
448 110 449 111 0
-448 -110 0
-448 -449 0
-448 -111 0
-110 -449 0
-110 -111 0
-449 -111 0
465 111 466 112 0
-465 -111 0
-465 -466 0
-465 -112 0
-111 -466 0
-111 -112 0
-466 -112 0
482 112 483 113 0
-482 -112 0
-482 -483 0
-482 -113 0
-112 -483 0
-112 -113 0
-483 -113 0
499 113 500 114 0
-499 -113 0
-499 -500 0
-499 -114 0
-113 -500 0
-113 -114 0
-500 -114 0
516 114 517 115 0
-516 -114 0
-516 -517 0
-516 -115 0
-114 -517 0
-114 -115 0
-517 -115 0
533 115 534 116 0
-533 -115 0
-533 -534 0
-533 -116 0
-115 -534 0
-115 -116 0
-534 -116 0
550 116 551 117 0
-550 -116 0
-550 -551 0
-550 -117 0
-116 -551 0
-116 -117 0
-551 -117 0
567 117 568 118 0
-567 -117 0
-567 -568 0
-567 -118 0
-117 -568 0
-117 -118 0
-568 -118 0
584 118 585 119 0
-584 -118 0
-584 -585 0
-584 -119 0
-118 -585 0
-118 -119 0
-585 -119 0
601 119 602 0
-601 -119 0
-601 -602 0
-119 -602 0
313 314 120 0
-313 -314 0
-313 -120 0
-314 -120 0
330 120 331 121 0
-330 -120 0
-330 -331 0
-330 -121 0
-120 -331 0
-120 -121 0
-331 -121 0
347 121 348 122 0
-347 -121 0
-347 -348 0
-347 -122 0
-121 -348 0
-121 -122 0
-348 -122 0
364 122 365 123 0
-364 -122 0
-364 -365 0
-364 -123 0
-122 -365 0
-122 -123 0
-365 -123 0
381 123 382 124 0
-381 -123 0
-381 -382 0
-381 -124 0
-123 -382 0
-123 -124 0
-382 -124 0
398 124 399 125 0
-398 -124 0
-398 -399 0
-398 -125 0
-124 -399 0
-124 -125 0
-399 -125 0
415 125 416 126 0
-415 -125 0
-415 -416 0
-415 -126 0
-125 -416 0
-125 -126 0
-416 -126 0
432 126 433 127 0
-432 -126 0
-432 -433 0
-432 -127 0
-126 -433 0
-126 -127 0
-433 -127 0
449 127 450 128 0
-449 -127 0
-449 -450 0
-449 -128 0
-127 -450 0
-127 -128 0
-450 -128 0
466 128 467 129 0
-466 -128 0
-466 -467 0
-466 -129 0
-128 -467 0
-128 -129 0
-467 -129 0
483 129 484 130 0
-483 -129 0
-483 -484 0
-483 -130 0
-129 -484 0
-129 -130 0
-484 -130 0
500 130 501 131 0
-500 -130 0
-500 -501 0
-500 -131 0
-130 -501 0
-130 -131 0
-501 -131 0
517 131 518 132 0
-517 -131 0
-517 -518 0
-517 -132 0
-131 -518 0
-131 -132 0
-518 -132 0
534 132 535 133 0
-534 -132 0
-534 -535 0
-534 -133 0
-132 -535 0
-132 -133 0
-535 -133 0
551 133 552 134 0
-551 -133 0
-551 -552 0
-551 -134 0
-133 -552 0
-133 -134 0
-552 -134 0
568 134 569 135 0
-568 -134 0
-568 -569 0
-568 -135 0
-134 -569 0
-134 -135 0
-569 -135 0
585 135 586 136 0
-585 -135 0
-585 -586 0
-585 -136 0
-135 -586 0
-135 -136 0
-586 -136 0
602 136 603 0
-602 -136 0
-602 -603 0
-136 -603 0
314 315 137 0
-314 -315 0
-314 -137 0
-315 -137 0
331 137 332 138 0
-331 -137 0
-331 -332 0
-331 -138 0
-137 -332 0
-137 -138 0
-332 -138 0
348 138 349 139 0
-348 -138 0
-348 -349 0
-348 -139 0
-138 -349 0
-138 -139 0
-349 -139 0
365 139 366 140 0
-365 -139 0
-365 -366 0
-365 -140 0
-139 -366 0
-139 -140 0
-366 -140 0
382 140 383 141 0
-382 -140 0
-382 -383 0
-382 -141 0
-140 -383 0
-140 -141 0
-383 -141 0
399 141 400 142 0
-399 -141 0
-399 -400 0
-399 -142 0
-141 -400 0
-141 -142 0
-400 -142 0
416 142 417 143 0
-416 -142 0
-416 -417 0
-416 -143 0
-142 -417 0
-142 -143 0
-417 -143 0
433 143 434 144 0
-433 -143 0
-433 -434 0
-433 -144 0
-143 -434 0
-143 -144 0
-434 -144 0
450 144 451 145 0
-450 -144 0
-450 -451 0
-450 -145 0
-144 -451 0
-144 -145 0
-451 -145 0
467 145 468 146 0
-467 -145 0
-467 -468 0
-467 -146 0
-145 -468 0
-145 -146 0
-468 -146 0
484 146 485 147 0
-484 -146 0
-484 -485 0
-484 -147 0
-146 -485 0
-146 -147 0
-485 -147 0
501 147 502 148 0
-501 -147 0
-501 -502 0
-501 -148 0
-147 -502 0
-147 -148 0
-502 -148 0
518 148 519 149 0
-518 -148 0
-518 -519 0
-518 -149 0
-148 -519 0
-148 -149 0
-519 -149 0
535 149 536 150 0
-535 -149 0
-535 -536 0
-535 -150 0
-149 -536 0
-149 -150 0
-536 -150 0
552 150 553 151 0
-552 -150 0
-552 -553 0
-552 -151 0
-150 -553 0
-150 -151 0
-553 -151 0
569 151 570 152 0
-569 -151 0
-569 -570 0
-569 -152 0
-151 -570 0
-151 -152 0
-570 -152 0
586 152 587 153 0
-586 -152 0
-586 -587 0
-586 -153 0
-152 -587 0
-152 -153 0
-587 -153 0
603 153 604 0
-603 -153 0
-603 -604 0
-153 -604 0
315 316 154 0
-315 -316 0
-315 -154 0
-316 -154 0
332 154 333 155 0
-332 -154 0
-332 -333 0
-332 -155 0
-154 -333 0
-154 -155 0
-333 -155 0
349 155 350 156 0
-349 -155 0
-349 -350 0
-349 -156 0
-155 -350 0
-155 -156 0
-350 -156 0
366 156 367 157 0
-366 -156 0
-366 -367 0
-366 -157 0
-156 -367 0
-156 -157 0
-367 -157 0
383 157 384 158 0
-383 -157 0
-383 -384 0
-383 -158 0
-157 -384 0
-157 -158 0
-384 -158 0
400 158 401 159 0
-400 -158 0
-400 -401 0
-400 -159 0
-158 -401 0
-158 -159 0
-401 -159 0
417 159 418 160 0
-417 -159 0
-417 -418 0
-417 -160 0
-159 -418 0
-159 -160 0
-418 -160 0
434 160 435 161 0
-434 -160 0
-434 -435 0
-434 -161 0
-160 -435 0
-160 -161 0
-435 -161 0
451 161 452 162 0
-451 -161 0
-451 -452 0
-451 -162 0
-161 -452 0
-161 -162 0
-452 -162 0
468 162 469 163 0
-468 -162 0
-468 -469 0
-468 -163 0
-162 -469 0
-162 -163 0
-469 -163 0
485 163 486 164 0
-485 -163 0
-485 -486 0
-485 -164 0
-163 -486 0
-163 -164 0
-486 -164 0
502 164 503 165 0
-502 -164 0
-502 -503 0
-502 -165 0
-164 -503 0
-164 -165 0
-503 -165 0
519 165 520 166 0
-519 -165 0
-519 -520 0
-519 -166 0
-165 -520 0
-165 -166 0
-520 -166 0
536 166 537 167 0
-536 -166 0
-536 -537 0
-536 -167 0
-166 -537 0
-166 -167 0
-537 -167 0
553 167 554 168 0
-553 -167 0
-553 -554 0
-553 -168 0
-167 -554 0
-167 -168 0
-554 -168 0
570 168 571 169 0
-570 -168 0
-570 -571 0
-570 -169 0
-168 -571 0
-168 -169 0
-571 -169 0
587 169 588 170 0
-587 -169 0
-587 -588 0
-587 -170 0
-169 -588 0
-169 -170 0
-588 -170 0
604 170 605 0
-604 -170 0
-604 -605 0
-170 -605 0
316 317 171 0
-316 -317 0
-316 -171 0
-317 -171 0
333 171 334 172 0
-333 -171 0
-333 -334 0
-333 -172 0
-171 -334 0
-171 -172 0
-334 -172 0
350 172 351 173 0
-350 -172 0
-350 -351 0
-350 -173 0
-172 -351 0
-172 -173 0
-351 -173 0
367 173 368 174 0
-367 -173 0
-367 -368 0
-367 -174 0
-173 -368 0
-173 -174 0
-368 -174 0
384 174 385 175 0
-384 -174 0
-384 -385 0
-384 -175 0
-174 -385 0
-174 -175 0
-385 -175 0
401 175 402 176 0
-401 -175 0
-401 -402 0
-401 -176 0
-175 -402 0
-175 -176 0
-402 -176 0
418 176 419 177 0
-418 -176 0
-418 -419 0
-418 -177 0
-176 -419 0
-176 -177 0
-419 -177 0
435 177 436 178 0
-435 -177 0
-435 -436 0
-435 -178 0
-177 -436 0
-177 -178 0
-436 -178 0
452 178 453 179 0
-452 -178 0
-452 -453 0
-452 -179 0
-178 -453 0
-178 -179 0
-453 -179 0
469 179 470 180 0
-469 -179 0
-469 -470 0
-469 -180 0
-179 -470 0
-179 -180 0
-470 -180 0
486 180 487 181 0
-486 -180 0
-486 -487 0
-486 -181 0
-180 -487 0
-180 -181 0
-487 -181 0
503 181 504 182 0
-503 -181 0
-503 -504 0
-503 -182 0
-181 -504 0
-181 -182 0
-504 -182 0
520 182 521 183 0
-520 -182 0
-520 -521 0
-520 -183 0
-182 -521 0
-182 -183 0
-521 -183 0
537 183 538 184 0
-537 -183 0
-537 -538 0
-537 -184 0
-183 -538 0
-183 -184 0
-538 -184 0
554 184 555 185 0
-554 -184 0
-554 -555 0
-554 -185 0
-184 -555 0
-184 -185 0
-555 -185 0
571 185 572 186 0
-571 -185 0
-571 -572 0
-571 -186 0
-185 -572 0
-185 -186 0
-572 -186 0
588 186 589 187 0
-588 -186 0
-588 -589 0
-588 -187 0
-186 -589 0
-186 -187 0
-589 -187 0
605 187 606 0
-605 -187 0
-605 -606 0
-187 -606 0
317 318 188 0
-317 -318 0
-317 -188 0
-318 -188 0
334 188 335 189 0
-334 -188 0
-334 -335 0
-334 -189 0
-188 -335 0
-188 -189 0
-335 -189 0
351 189 352 190 0
-351 -189 0
-351 -352 0
-351 -190 0
-189 -352 0
-189 -190 0
-352 -190 0
368 190 369 191 0
-368 -190 0
-368 -369 0
-368 -191 0
-190 -369 0
-190 -191 0
-369 -191 0
385 191 386 192 0
-385 -191 0
-385 -386 0
-385 -192 0
-191 -386 0
-191 -192 0
-386 -192 0
402 192 403 193 0
-402 -192 0
-402 -403 0
-402 -193 0
-192 -403 0
-192 -193 0
-403 -193 0
419 193 420 194 0
-419 -193 0
-419 -420 0
-419 -194 0
-193 -420 0
-193 -194 0
-420 -194 0
436 194 437 195 0
-436 -194 0
-436 -437 0
-436 -195 0
-194 -437 0
-194 -195 0
-437 -195 0
453 195 454 196 0
-453 -195 0
-453 -454 0
-453 -196 0
-195 -454 0
-195 -196 0
-454 -196 0
470 196 471 197 0
-470 -196 0
-470 -471 0
-470 -197 0
-196 -471 0
-196 -197 0
-471 -197 0
487 197 488 198 0
-487 -197 0
-487 -488 0
-487 -198 0
-197 -488 0
-197 -198 0
-488 -198 0
504 198 505 199 0
-504 -198 0
-504 -505 0
-504 -199 0
-198 -505 0
-198 -199 0
-505 -199 0
521 199 522 200 0
-521 -199 0
-521 -522 0
-521 -200 0
-199 -522 0
-199 -200 0
-522 -200 0
538 200 539 201 0
-538 -200 0
-538 -539 0
-538 -201 0
-200 -539 0
-200 -201 0
-539 -201 0
555 201 556 202 0
-555 -201 0
-555 -556 0
-555 -202 0
-201 -556 0
-201 -202 0
-556 -202 0
572 202 573 203 0
-572 -202 0
-572 -573 0
-572 -203 0
-202 -573 0
-202 -203 0
-573 -203 0
589 203 590 204 0
-589 -203 0
-589 -590 0
-589 -204 0
-203 -590 0
-203 -204 0
-590 -204 0
606 204 607 0
-606 -204 0
-606 -607 0
-204 -607 0
318 319 205 0
-318 -319 0
-318 -205 0
-319 -205 0
335 205 336 206 0
-335 -205 0
-335 -336 0
-335 -206 0
-205 -336 0
-205 -206 0
-336 -206 0
352 206 353 207 0
-352 -206 0
-352 -353 0
-352 -207 0
-206 -353 0
-206 -207 0
-353 -207 0
369 207 370 208 0
-369 -207 0
-369 -370 0
-369 -208 0
-207 -370 0
-207 -208 0
-370 -208 0
386 208 387 209 0
-386 -208 0
-386 -387 0
-386 -209 0
-208 -387 0
-208 -209 0
-387 -209 0
403 209 404 210 0
-403 -209 0
-403 -404 0
-403 -210 0
-209 -404 0
-209 -210 0
-404 -210 0
420 210 421 211 0
-420 -210 0
-420 -421 0
-420 -211 0
-210 -421 0
-210 -211 0
-421 -211 0
437 211 438 212 0
-437 -211 0
-437 -438 0
-437 -212 0
-211 -438 0
-211 -212 0
-438 -212 0
454 212 455 213 0
-454 -212 0
-454 -455 0
-454 -213 0
-212 -455 0
-212 -213 0
-455 -213 0
471 213 472 214 0
-471 -213 0
-471 -472 0
-471 -214 0
-213 -472 0
-213 -214 0
-472 -214 0
488 214 489 215 0
-488 -214 0
-488 -489 0
-488 -215 0
-214 -489 0
-214 -215 0
-489 -215 0
505 215 506 216 0
-505 -215 0
-505 -506 0
-505 -216 0
-215 -506 0
-215 -216 0
-506 -216 0
522 216 523 217 0
-522 -216 0
-522 -523 0
-522 -217 0
-216 -523 0
-216 -217 0
-523 -217 0
539 217 540 218 0
-539 -217 0
-539 -540 0
-539 -218 0
-217 -540 0
-217 -218 0
-540 -218 0
556 218 557 219 0
-556 -218 0
-556 -557 0
-556 -219 0
-218 -557 0
-218 -219 0
-557 -219 0
573 219 574 220 0
-573 -219 0
-573 -574 0
-573 -220 0
-219 -574 0
-219 -220 0
-574 -220 0
590 220 591 221 0
-590 -220 0
-590 -591 0
-590 -221 0
-220 -591 0
-220 -221 0
-591 -221 0
607 221 608 0
-607 -221 0
-607 -608 0
-221 -608 0
319 320 222 0
-319 -320 0
-319 -222 0
-320 -222 0
336 222 337 223 0
-336 -222 0
-336 -337 0
-336 -223 0
-222 -337 0
-222 -223 0
-337 -223 0
353 223 354 224 0
-353 -223 0
-353 -354 0
-353 -224 0
-223 -354 0
-223 -224 0
-354 -224 0
370 224 371 225 0
-370 -224 0
-370 -371 0
-370 -225 0
-224 -371 0
-224 -225 0
-371 -225 0
387 225 388 226 0
-387 -225 0
-387 -388 0
-387 -226 0
-225 -388 0
-225 -226 0
-388 -226 0
404 226 405 227 0
-404 -226 0
-404 -405 0
-404 -227 0
-226 -405 0
-226 -227 0
-405 -227 0
421 227 422 228 0
-421 -227 0
-421 -422 0
-421 -228 0
-227 -422 0
-227 -228 0
-422 -228 0
438 228 439 229 0
-438 -228 0
-438 -439 0
-438 -229 0
-228 -439 0
-228 -229 0
-439 -229 0
455 229 456 230 0
-455 -229 0
-455 -456 0
-455 -230 0
-229 -456 0
-229 -230 0
-456 -230 0
472 230 473 231 0
-472 -230 0
-472 -473 0
-472 -231 0
-230 -473 0
-230 -231 0
-473 -231 0
489 231 490 232 0
-489 -231 0
-489 -490 0
-489 -232 0
-231 -490 0
-231 -232 0
-490 -232 0
506 232 507 233 0
-506 -232 0
-506 -507 0
-506 -233 0
-232 -507 0
-232 -233 0
-507 -233 0
523 233 524 234 0
-523 -233 0
-523 -524 0
-523 -234 0
-233 -524 0
-233 -234 0
-524 -234 0
540 234 541 235 0
-540 -234 0
-540 -541 0
-540 -235 0
-234 -541 0
-234 -235 0
-541 -235 0
557 235 558 236 0
-557 -235 0
-557 -558 0
-557 -236 0
-235 -558 0
-235 -236 0
-558 -236 0
574 236 575 237 0
-574 -236 0
-574 -575 0
-574 -237 0
-236 -575 0
-236 -237 0
-575 -237 0
591 237 592 238 0
-591 -237 0
-591 -592 0
-591 -238 0
-237 -592 0
-237 -238 0
-592 -238 0
608 238 609 0
-608 -238 0
-608 -609 0
-238 -609 0
320 321 239 0
-320 -321 0
-320 -239 0
-321 -239 0
337 239 338 240 0
-337 -239 0
-337 -338 0
-337 -240 0
-239 -338 0
-239 -240 0
-338 -240 0
354 240 355 241 0
-354 -240 0
-354 -355 0
-354 -241 0
-240 -355 0
-240 -241 0
-355 -241 0
371 241 372 242 0
-371 -241 0
-371 -372 0
-371 -242 0
-241 -372 0
-241 -242 0
-372 -242 0
388 242 389 243 0
-388 -242 0
-388 -389 0
-388 -243 0
-242 -389 0
-242 -243 0
-389 -243 0
405 243 406 244 0
-405 -243 0
-405 -406 0
-405 -244 0
-243 -406 0
-243 -244 0
-406 -244 0
422 244 423 245 0
-422 -244 0
-422 -423 0
-422 -245 0
-244 -423 0
-244 -245 0
-423 -245 0
439 245 440 246 0
-439 -245 0
-439 -440 0
-439 -246 0
-245 -440 0
-245 -246 0
-440 -246 0
456 246 457 247 0
-456 -246 0
-456 -457 0
-456 -247 0
-246 -457 0
-246 -247 0
-457 -247 0
473 247 474 248 0
-473 -247 0
-473 -474 0
-473 -248 0
-247 -474 0
-247 -248 0
-474 -248 0
490 248 491 249 0
-490 -248 0
-490 -491 0
-490 -249 0
-248 -491 0
-248 -249 0
-491 -249 0
507 249 508 250 0
-507 -249 0
-507 -508 0
-507 -250 0
-249 -508 0
-249 -250 0
-508 -250 0
524 250 525 251 0
-524 -250 0
-524 -525 0
-524 -251 0
-250 -525 0
-250 -251 0
-525 -251 0
541 251 542 252 0
-541 -251 0
-541 -542 0
-541 -252 0
-251 -542 0
-251 -252 0
-542 -252 0
558 252 559 253 0
-558 -252 0
-558 -559 0
-558 -253 0
-252 -559 0
-252 -253 0
-559 -253 0
575 253 576 254 0
-575 -253 0
-575 -576 0
-575 -254 0
-253 -576 0
-253 -254 0
-576 -254 0
592 254 593 255 0
-592 -254 0
-592 -593 0
-592 -255 0
-254 -593 0
-254 -255 0
-593 -255 0
609 255 610 0
-609 -255 0
-609 -610 0
-255 -610 0
321 322 256 0
-321 -322 0
-321 -256 0
-322 -256 0
338 256 339 257 0
-338 -256 0
-338 -339 0
-338 -257 0
-256 -339 0
-256 -257 0
-339 -257 0
355 257 356 258 0
-355 -257 0
-355 -356 0
-355 -258 0
-257 -356 0
-257 -258 0
-356 -258 0
372 258 373 259 0
-372 -258 0
-372 -373 0
-372 -259 0
-258 -373 0
-258 -259 0
-373 -259 0
389 259 390 260 0
-389 -259 0
-389 -390 0
-389 -260 0
-259 -390 0
-259 -260 0
-390 -260 0
406 260 407 261 0
-406 -260 0
-406 -407 0
-406 -261 0
-260 -407 0
-260 -261 0
-407 -261 0
423 261 424 262 0
-423 -261 0
-423 -424 0
-423 -262 0
-261 -424 0
-261 -262 0
-424 -262 0
440 262 441 263 0
-440 -262 0
-440 -441 0
-440 -263 0
-262 -441 0
-262 -263 0
-441 -263 0
457 263 458 264 0
-457 -263 0
-457 -458 0
-457 -264 0
-263 -458 0
-263 -264 0
-458 -264 0
474 264 475 265 0
-474 -264 0
-474 -475 0
-474 -265 0
-264 -475 0
-264 -265 0
-475 -265 0
491 265 492 266 0
-491 -265 0
-491 -492 0
-491 -266 0
-265 -492 0
-265 -266 0
-492 -266 0
508 266 509 267 0
-508 -266 0
-508 -509 0
-508 -267 0
-266 -509 0
-266 -267 0
-509 -267 0
525 267 526 268 0
-525 -267 0
-525 -526 0
-525 -268 0
-267 -526 0
-267 -268 0
-526 -268 0
542 268 543 269 0
-542 -268 0
-542 -543 0
-542 -269 0
-268 -543 0
-268 -269 0
-543 -269 0
559 269 560 270 0
-559 -269 0
-559 -560 0
-559 -270 0
-269 -560 0
-269 -270 0
-560 -270 0
576 270 577 271 0
-576 -270 0
-576 -577 0
-576 -271 0
-270 -577 0
-270 -271 0
-577 -271 0
593 271 594 272 0
-593 -271 0
-593 -594 0
-593 -272 0
-271 -594 0
-271 -272 0
-594 -272 0
610 272 611 0
-610 -272 0
-610 -611 0
-272 -611 0
322 323 273 0
-322 -323 0
-322 -273 0
-323 -273 0
339 273 340 274 0
-339 -273 0
-339 -340 0
-339 -274 0
-273 -340 0
-273 -274 0
-340 -274 0
356 274 357 275 0
-356 -274 0
-356 -357 0
-356 -275 0
-274 -357 0
-274 -275 0
-357 -275 0
373 275 374 276 0
-373 -275 0
-373 -374 0
-373 -276 0
-275 -374 0
-275 -276 0
-374 -276 0
390 276 391 277 0
-390 -276 0
-390 -391 0
-390 -277 0
-276 -391 0
-276 -277 0
-391 -277 0
407 277 408 278 0
-407 -277 0
-407 -408 0
-407 -278 0
-277 -408 0
-277 -278 0
-408 -278 0
424 278 425 279 0
-424 -278 0
-424 -425 0
-424 -279 0
-278 -425 0
-278 -279 0
-425 -279 0
441 279 442 280 0
-441 -279 0
-441 -442 0
-441 -280 0
-279 -442 0
-279 -280 0
-442 -280 0
458 280 459 281 0
-458 -280 0
-458 -459 0
-458 -281 0
-280 -459 0
-280 -281 0
-459 -281 0
475 281 476 282 0
-475 -281 0
-475 -476 0
-475 -282 0
-281 -476 0
-281 -282 0
-476 -282 0
492 282 493 283 0
-492 -282 0
-492 -493 0
-492 -283 0
-282 -493 0
-282 -283 0
-493 -283 0
509 283 510 284 0
-509 -283 0
-509 -510 0
-509 -284 0
-283 -510 0
-283 -284 0
-510 -284 0
526 284 527 285 0
-526 -284 0
-526 -527 0
-526 -285 0
-284 -527 0
-284 -285 0
-527 -285 0
543 285 544 286 0
-543 -285 0
-543 -544 0
-543 -286 0
-285 -544 0
-285 -286 0
-544 -286 0
560 286 561 287 0
-560 -286 0
-560 -561 0
-560 -287 0
-286 -561 0
-286 -287 0
-561 -287 0
577 287 578 288 0
-577 -287 0
-577 -578 0
-577 -288 0
-287 -578 0
-287 -288 0
-578 -288 0
594 288 595 289 0
-594 -288 0
-594 -595 0
-594 -289 0
-288 -595 0
-288 -289 0
-595 -289 0
611 289 0
-611 -289 0
323 290 0
-323 -290 0
340 290 291 0
-340 -290 0
-340 -291 0
-290 -291 0
357 291 292 0
-357 -291 0
-357 -292 0
-291 -292 0
374 292 293 0
-374 -292 0
-374 -293 0
-292 -293 0
391 293 294 0
-391 -293 0
-391 -294 0
-293 -294 0
408 294 295 0
-408 -294 0
-408 -295 0
-294 -295 0
425 295 296 0
-425 -295 0
-425 -296 0
-295 -296 0
442 296 297 0
-442 -296 0
-442 -297 0
-296 -297 0
459 297 298 0
-459 -297 0
-459 -298 0
-297 -298 0
476 298 299 0
-476 -298 0
-476 -299 0
-298 -299 0
493 299 300 0
-493 -299 0
-493 -300 0
-299 -300 0
510 300 301 0
-510 -300 0
-510 -301 0
-300 -301 0
527 301 302 0
-527 -301 0
-527 -302 0
-301 -302 0
544 302 303 0
-544 -302 0
-544 -303 0
-302 -303 0
561 303 304 0
-561 -303 0
-561 -304 0
-303 -304 0
578 304 305 0
-578 -304 0
-578 -305 0
-304 -305 0
595 305 0
-595 -305 0
-306 0
-612 0
